(set-option :produce-models true)
(set-logic QF_LRA)
(set-info :notes | Strip-packing problem.|)
(declare-fun x0 () Real)
(declare-fun y0 () Real)
(declare-fun x1 () Real)
(declare-fun y1 () Real)
(declare-fun x2 () Real)
(declare-fun y2 () Real)
(declare-fun x3 () Real)
(declare-fun y3 () Real)
(declare-fun x4 () Real)
(declare-fun y4 () Real)
(declare-fun x5 () Real)
(declare-fun y5 () Real)
(declare-fun x6 () Real)
(declare-fun y6 () Real)
(declare-fun x7 () Real)
(declare-fun y7 () Real)
(declare-fun x8 () Real)
(declare-fun y8 () Real)
(declare-fun z () Real)
(declare-fun c () Real)
(assert (and (= c z) (and (>= x0 0) 
(and (>= y0 0) 
(and (>= x1 0) 
(and (>= y1 0) 
(and (>= x2 0) 
(and (>= y2 0) 
(and (>= x3 0) 
(and (>= y3 0) 
(and (>= x4 0) 
(and (>= y4 0) 
(and (>= x5 0) 
(and (>= y5 0) 
(and (>= x6 0) 
(and (>= y6 0) 
(and (>= x7 0) 
(and (>= y7 0) 
(and (>= x8 0) 
(and (>= y8 0) 
(and (>= z 0) 
(and (>= c 0) 
(and (<= (+ x0 0.1855218546) z) 
(and (<= 0.9039770566 y0) 
(and (<= y0 1.5) 
(and (<= x0 (- 2.8713372915 0.1855218546)) 
(and (>= x0 0) 
(and (<= (+ x1 0.9658536713) z) 
(and (<= 0.8527088323 y1) 
(and (<= y1 1.5) 
(and (<= x1 (- 2.8713372915 0.9658536713)) 
(and (>= x1 0) 
(and (<= (+ x2 0.1659998602) z) 
(and (<= 0.76438492 y2) 
(and (<= y2 1.5) 
(and (<= x2 (- 2.8713372915 0.1659998602)) 
(and (>= x2 0) 
(and (<= (+ x3 0.8253510345) z) 
(and (<= 0.5755878438 y3) 
(and (<= y3 1.5) 
(and (<= x3 (- 2.8713372915 0.8253510345)) 
(and (>= x3 0) 
(and (<= (+ x4 0.7426599805) z) 
(and (<= 0.5725162037 y4) 
(and (<= y4 1.5) 
(and (<= x4 (- 2.8713372915 0.7426599805)) 
(and (>= x4 0) 
(and (<= (+ x5 0.6211703496) z) 
(and (<= 0.454072304 y5) 
(and (<= y5 1.5) 
(and (<= x5 (- 2.8713372915 0.6211703496)) 
(and (>= x5 0) 
(and (<= (+ x6 0.8113019249) z) 
(and (<= 0.3034125159 y6) 
(and (<= y6 1.5) 
(and (<= x6 (- 2.8713372915 0.8113019249)) 
(and (>= x6 0) 
(and (<= (+ x7 0.0756056855) z) 
(and (<= 0.2695778767 y7) 
(and (<= y7 1.5) 
(and (<= x7 (- 2.8713372915 0.0756056855)) 
(and (>= x7 0) 
(and (<= (+ x8 0.3485524625) z) 
(and (<= 0.2278110261 y8) 
(and (<= y8 1.5) 
(and (<= x8 (- 2.8713372915 0.3485524625)) 
(and (>= x8 0) 
(and (<= c 2.8713372915) 
(and (or (<= (+ x0 0.1855218546) x1) (or (<= (+ x1 0.9658536713) x0) (or (>= (- y0 0.9039770566) y1) (or (>= (- y1 0.8527088323) y0))))) 
(and (or (<= (+ x0 0.1855218546) x2) (or (<= (+ x2 0.1659998602) x0) (or (>= (- y0 0.9039770566) y2) (or (>= (- y2 0.76438492) y0))))) 
(and (or (<= (+ x0 0.1855218546) x3) (or (<= (+ x3 0.8253510345) x0) (or (>= (- y0 0.9039770566) y3) (or (>= (- y3 0.5755878438) y0))))) 
(and (or (<= (+ x0 0.1855218546) x4) (or (<= (+ x4 0.7426599805) x0) (or (>= (- y0 0.9039770566) y4) (or (>= (- y4 0.5725162037) y0))))) 
(and (or (<= (+ x0 0.1855218546) x5) (or (<= (+ x5 0.6211703496) x0) (or (>= (- y0 0.9039770566) y5) (or (>= (- y5 0.454072304) y0))))) 
(and (or (<= (+ x0 0.1855218546) x6) (or (<= (+ x6 0.8113019249) x0) (or (>= (- y0 0.9039770566) y6) (or (>= (- y6 0.3034125159) y0))))) 
(and (or (<= (+ x0 0.1855218546) x7) (or (<= (+ x7 0.0756056855) x0) (or (>= (- y0 0.9039770566) y7) (or (>= (- y7 0.2695778767) y0))))) 
(and (or (<= (+ x0 0.1855218546) x8) (or (<= (+ x8 0.3485524625) x0) (or (>= (- y0 0.9039770566) y8) (or (>= (- y8 0.2278110261) y0))))) 
(and (or (<= (+ x1 0.9658536713) x2) (or (<= (+ x2 0.1659998602) x1) (or (>= (- y1 0.8527088323) y2) (or (>= (- y2 0.76438492) y1))))) 
(and (or (<= (+ x1 0.9658536713) x3) (or (<= (+ x3 0.8253510345) x1) (or (>= (- y1 0.8527088323) y3) (or (>= (- y3 0.5755878438) y1))))) 
(and (or (<= (+ x1 0.9658536713) x4) (or (<= (+ x4 0.7426599805) x1) (or (>= (- y1 0.8527088323) y4) (or (>= (- y4 0.5725162037) y1))))) 
(and (or (<= (+ x1 0.9658536713) x5) (or (<= (+ x5 0.6211703496) x1) (or (>= (- y1 0.8527088323) y5) (or (>= (- y5 0.454072304) y1))))) 
(and (or (<= (+ x1 0.9658536713) x6) (or (<= (+ x6 0.8113019249) x1) (or (>= (- y1 0.8527088323) y6) (or (>= (- y6 0.3034125159) y1))))) 
(and (or (<= (+ x1 0.9658536713) x7) (or (<= (+ x7 0.0756056855) x1) (or (>= (- y1 0.8527088323) y7) (or (>= (- y7 0.2695778767) y1))))) 
(and (or (<= (+ x1 0.9658536713) x8) (or (<= (+ x8 0.3485524625) x1) (or (>= (- y1 0.8527088323) y8) (or (>= (- y8 0.2278110261) y1))))) 
(and (or (<= (+ x2 0.1659998602) x3) (or (<= (+ x3 0.8253510345) x2) (or (>= (- y2 0.76438492) y3) (or (>= (- y3 0.5755878438) y2))))) 
(and (or (<= (+ x2 0.1659998602) x4) (or (<= (+ x4 0.7426599805) x2) (or (>= (- y2 0.76438492) y4) (or (>= (- y4 0.5725162037) y2))))) 
(and (or (<= (+ x2 0.1659998602) x5) (or (<= (+ x5 0.6211703496) x2) (or (>= (- y2 0.76438492) y5) (or (>= (- y5 0.454072304) y2))))) 
(and (or (<= (+ x2 0.1659998602) x6) (or (<= (+ x6 0.8113019249) x2) (or (>= (- y2 0.76438492) y6) (or (>= (- y6 0.3034125159) y2))))) 
(and (or (<= (+ x2 0.1659998602) x7) (or (<= (+ x7 0.0756056855) x2) (or (>= (- y2 0.76438492) y7) (or (>= (- y7 0.2695778767) y2))))) 
(and (or (<= (+ x2 0.1659998602) x8) (or (<= (+ x8 0.3485524625) x2) (or (>= (- y2 0.76438492) y8) (or (>= (- y8 0.2278110261) y2))))) 
(and (or (<= (+ x3 0.8253510345) x4) (or (<= (+ x4 0.7426599805) x3) (or (>= (- y3 0.5755878438) y4) (or (>= (- y4 0.5725162037) y3))))) 
(and (or (<= (+ x3 0.8253510345) x5) (or (<= (+ x5 0.6211703496) x3) (or (>= (- y3 0.5755878438) y5) (or (>= (- y5 0.454072304) y3))))) 
(and (or (<= (+ x3 0.8253510345) x6) (or (<= (+ x6 0.8113019249) x3) (or (>= (- y3 0.5755878438) y6) (or (>= (- y6 0.3034125159) y3))))) 
(and (or (<= (+ x3 0.8253510345) x7) (or (<= (+ x7 0.0756056855) x3) (or (>= (- y3 0.5755878438) y7) (or (>= (- y7 0.2695778767) y3))))) 
(and (or (<= (+ x3 0.8253510345) x8) (or (<= (+ x8 0.3485524625) x3) (or (>= (- y3 0.5755878438) y8) (or (>= (- y8 0.2278110261) y3))))) 
(and (or (<= (+ x4 0.7426599805) x5) (or (<= (+ x5 0.6211703496) x4) (or (>= (- y4 0.5725162037) y5) (or (>= (- y5 0.454072304) y4))))) 
(and (or (<= (+ x4 0.7426599805) x6) (or (<= (+ x6 0.8113019249) x4) (or (>= (- y4 0.5725162037) y6) (or (>= (- y6 0.3034125159) y4))))) 
(and (or (<= (+ x4 0.7426599805) x7) (or (<= (+ x7 0.0756056855) x4) (or (>= (- y4 0.5725162037) y7) (or (>= (- y7 0.2695778767) y4))))) 
(and (or (<= (+ x4 0.7426599805) x8) (or (<= (+ x8 0.3485524625) x4) (or (>= (- y4 0.5725162037) y8) (or (>= (- y8 0.2278110261) y4))))) 
(and (or (<= (+ x5 0.6211703496) x6) (or (<= (+ x6 0.8113019249) x5) (or (>= (- y5 0.454072304) y6) (or (>= (- y6 0.3034125159) y5))))) 
(and (or (<= (+ x5 0.6211703496) x7) (or (<= (+ x7 0.0756056855) x5) (or (>= (- y5 0.454072304) y7) (or (>= (- y7 0.2695778767) y5))))) 
(and (or (<= (+ x5 0.6211703496) x8) (or (<= (+ x8 0.3485524625) x5) (or (>= (- y5 0.454072304) y8) (or (>= (- y8 0.2278110261) y5))))) 
(and (or (<= (+ x6 0.8113019249) x7) (or (<= (+ x7 0.0756056855) x6) (or (>= (- y6 0.3034125159) y7) (or (>= (- y7 0.2695778767) y6))))) 
(and (or (<= (+ x6 0.8113019249) x8) (or (<= (+ x8 0.3485524625) x6) (or (>= (- y6 0.3034125159) y8) (or (>= (- y8 0.2278110261) y6))))) 
(and (or (<= (+ x7 0.0756056855) x8) (or (<= (+ x8 0.3485524625) x7) (or (>= (- y7 0.2695778767) y8) (or (>= (- y8 0.2278110261) y7))))) ))))))))))))))))))))))))))))))))))))))))))))))))))))))))))))))))))))))))))))))))))))))))))))))))))))))))
(minimize c)
(check-sat)
(get-objectives)
(exit)
